(set-logic QF_NRA)
; benchmark generated from python API
(set-info :status unknown)
(declare-fun v1y () Real)
(declare-fun oy () Real)
(declare-fun v1x () Real)
(declare-fun R2 () Real)
(declare-fun y1y () Real)
(declare-fun xy () Real)
(declare-fun y1x () Real)
(declare-fun xx () Real)
(declare-fun rho2 () Real)
(declare-fun b1y () Real)
(declare-fun b1x () Real)
(declare-fun b2y () Real)
(declare-fun b2x () Real)
(declare-fun b3y () Real)
(declare-fun b3x () Real)
(assert
 (let ((?x364 (* (- 1.0) v1x)))
 (let ((?x16 (* (- 1.0) R2)))
 (let ((?x38 (+ (+ (+ (+ (/ 1.0 4.0) (* oy oy)) (* v1x v1x)) (* v1y v1y)) ?x16)))
 (= (+ (+ ?x38 ?x364) (* (* (- 2.0) oy) v1y)) 0.0)))))
(assert
 (= (+ (+ (/ 1.0 4.0) (* oy oy)) (* (- 1.0) R2)) 0.0))
(assert
 (let ((?x49 (* (- 1.0) rho2)))
 (let ((?x334 (* y1y y1y)))
 (let ((?x50 (+ (+ (+ (+ (* xx xx) (* xy xy)) (* y1x y1x)) ?x334) ?x49)))
 (= (+ (+ ?x50 (* (* (- 2.0) xx) y1x)) (* (* (- 2.0) xy) y1y)) 0.0)))))
(assert
 (let ((?x49 (* (- 1.0) rho2)))
 (let ((?x47 (* xy xy)))
 (let ((?x65 (+ (+ (+ (+ (* b1x b1x) (* b1y b1y)) (* xx xx)) ?x47) ?x49)))
 (= (+ (+ ?x65 (* (* (- 2.0) b1x) xx)) (* (* (- 2.0) b1y) xy)) 0.0)))))
(assert
 (let ((?x49 (* (- 1.0) rho2)))
 (let ((?x47 (* xy xy)))
 (let ((?x80 (+ (+ (+ (+ (* b2x b2x) (* b2y b2y)) (* xx xx)) ?x47) ?x49)))
 (= (+ (+ ?x80 (* (* (- 2.0) b2x) xx)) (* (* (- 2.0) b2y) xy)) 0.0)))))
(assert
 (let ((?x49 (* (- 1.0) rho2)))
 (let ((?x47 (* xy xy)))
 (let ((?x79 (+ (+ (+ (+ (* b3x b3x) (* b3y b3y)) (* xx xx)) ?x47) ?x49)))
 (= (+ (+ ?x79 (* (* (- 2.0) b3x) xx)) (* (* (- 2.0) b3y) xy)) 0.0)))))
(assert
 (let ((?x91 (+ (+ (+ (+ (- (/ 1.0 4.0)) R2) xx) (* (- 1.0) (* oy oy))) (* (- 1.0) (* xx xx)))))
 (>= (+ (+ ?x91 (* (- 1.0) (* xy xy))) (* (* 2.0 oy) xy)) 0.0)))
(assert
 (let ((?x101 (+ (+ (+ (+ (- (/ 1.0 4.0)) R2) y1x) (* (- 1.0) (* oy oy))) (* (- 1.0) (* y1x y1x)))))
 (>= (+ (+ ?x101 (* (- 1.0) (* y1y y1y))) (* (* 2.0 oy) y1y)) 0.0)))
(assert
 (let ((?x356 (* oy oy)))
 (let ((?x87 (* (- 1.0) ?x356)))
 (let ((?x97 (+ (+ (+ (+ (- (/ 1.0 4.0)) R2) b1x) (* (- 1.0) (* b1x b1x))) (* (- 1.0) (* b1y b1y)))))
 (>= (+ (+ ?x97 ?x87) (* (* 2.0 b1y) oy)) 0.0)))))
(assert
 (let ((?x356 (* oy oy)))
 (let ((?x87 (* (- 1.0) ?x356)))
 (let ((?x122 (+ (+ (+ (+ (- (/ 1.0 4.0)) R2) b2x) (* (- 1.0) (* b2x b2x))) (* (- 1.0) (* b2y b2y)))))
 (>= (+ (+ ?x122 ?x87) (* (* 2.0 b2y) oy)) 0.0)))))
(assert
 (let ((?x356 (* oy oy)))
 (let ((?x87 (* (- 1.0) ?x356)))
 (let ((?x124 (+ (+ (+ (+ (- (/ 1.0 4.0)) R2) b3x) (* (- 1.0) (* b3x b3x))) (* (- 1.0) (* b3y b3y)))))
 (>= (+ (+ ?x124 ?x87) (* (* 2.0 b3y) oy)) 0.0)))))
(assert
 (>= (+ (+ (* v1x v1x) (* v1y v1y)) (* (- 1.0) v1x)) 0.0))
(assert
 (>= v1x 0.0))
(assert
 (>= (+ 1.0 (* (- 1.0) v1x)) 0.0))
(assert
 (> R2 0.0))
(assert
 (> rho2 0.0))
(assert
 (let ((?x133 (* (- 1.0) v1y)))
 (let ((?x69 (* ?x133 xy)))
 (> ?x69 0.0))))
(assert
 (let ((?x145 (+ (+ (* v1y v1y) (* (* (- 1.0) v1y) xy)) (* (* (- 1.0) xx) (* v1y v1y)))))
 (> (+ ?x145 (* (* v1x v1y) xy)) 0.0)))
(assert
 (> (+ (* xx (* v1y v1y)) (* (* (* (- 1.0) v1x) v1y) xy)) 0.0))
(assert
 (let ((?x133 (* (- 1.0) v1y)))
 (let ((?x229 (* ?x133 y1y)))
 (> ?x229 0.0))))
(assert
 (let ((?x22 (+ (+ (* v1y v1y) (* (* (- 1.0) v1y) y1y)) (* (* (- 1.0) y1x) (* v1y v1y)))))
 (> (+ ?x22 (* (* v1x v1y) y1y)) 0.0)))
(assert
 (> (+ (* y1x (* v1y v1y)) (* (* (* (- 1.0) v1x) v1y) y1y)) 0.0))
(assert
 (> (* b1y v1y) 0.0))
(assert
 (let ((?x220 (* b1y v1x)))
 (let ((?x154 (* ?x220 v1y)))
 (let ((?x152 (+ (+ (* v1y v1y) (* (* (- 1.0) b1x) (* v1y v1y))) (* (* (- 1.0) b1y) v1y))))
 (> (+ ?x152 ?x154) 0.0)))))
(assert
 (> (+ (* (* (- 1.0) b1x) (* v1y v1y)) (* (* b1y v1x) v1y)) 0.0))
(assert
 (> (* b2y v1y) 0.0))
(assert
 (let ((?x173 (* b2y v1x)))
 (let ((?x159 (* ?x173 v1y)))
 (let ((?x161 (+ (+ (* v1y v1y) (* (* (- 1.0) b2x) (* v1y v1y))) (* (* (- 1.0) b2y) v1y))))
 (> (+ ?x161 ?x159) 0.0)))))
(assert
 (> (+ (* (* (- 1.0) b2x) (* v1y v1y)) (* (* b2y v1x) v1y)) 0.0))
(assert
 (> (* b3y v1y) 0.0))
(assert
 (let ((?x185 (* b3y v1x)))
 (let ((?x330 (* ?x185 v1y)))
 (let ((?x176 (+ (+ (* v1y v1y) (* (* (- 1.0) b3x) (* v1y v1y))) (* (* (- 1.0) b3y) v1y))))
 (> (+ ?x176 ?x330) 0.0)))))
(assert
 (> (+ (* (* (- 1.0) b3x) (* v1y v1y)) (* (* b3y v1x) v1y)) 0.0))
(assert
 (> (+ (* xx y1y) (* (* (- 1.0) xy) y1x)) 0.0))
(assert
 (let ((?x187 (* (- 1.0) xy)))
 (> ?x187 0.0)))
(assert
 (> (+ (* v1y xx) (* (* (- 1.0) v1x) xy)) 0.0))
(assert
 (> (+ (* b1y xx) (* (* (- 1.0) b1x) xy)) 0.0))
(assert
 (> (+ (* b2y xx) (* (* (- 1.0) b2x) xy)) 0.0))
(assert
 (> (+ (* b3y xx) (* (* (- 1.0) b3x) xy)) 0.0))
(assert
 (let ((?x209 (* (- 1.0) y1y)))
 (> ?x209 0.0)))
(assert
 (> (+ (* v1y y1x) (* (* (- 1.0) v1x) y1y)) 0.0))
(assert
 (> (+ (* b1y y1x) (* (* (- 1.0) b1x) y1y)) 0.0))
(assert
 (> (+ (* b2y y1x) (* (* (- 1.0) b2x) y1y)) 0.0))
(assert
 (> (+ (* b3y y1x) (* (* (- 1.0) b3x) y1y)) 0.0))
(assert
 (> v1y 0.0))
(assert
 (> b1y 0.0))
(assert
 (> b2y 0.0))
(assert
 (> b3y 0.0))
(assert
 (> (+ (* b1y v1x) (* (* (- 1.0) b1x) v1y)) 0.0))
(assert
 (> (+ (* b2y v1x) (* (* (- 1.0) b2x) v1y)) 0.0))
(assert
 (> (+ (* b3y v1x) (* (* (- 1.0) b3x) v1y)) 0.0))
(assert
 (> (+ (* b1x b2y) (* (* (- 1.0) b1y) b2x)) 0.0))
(assert
 (> (+ (* b1x b3y) (* (* (- 1.0) b1y) b3x)) 0.0))
(assert
 (> (+ (* b2x b3y) (* (* (- 1.0) b2y) b3x)) 0.0))
(assert
 (let ((?x187 (* (- 1.0) xy)))
 (let ((?x188 (* ?x187 y1x)))
 (> (+ (+ (+ xy (* (- 1.0) y1y)) (* xx y1y)) ?x188) 0.0))))
(assert
 (let ((?x187 (* (- 1.0) xy)))
 (let ((?x188 (* ?x187 y1x)))
 (let ((?x133 (* (- 1.0) v1y)))
 (let ((?x319 (* ?x133 xx)))
 (let ((?x364 (* (- 1.0) v1x)))
 (let ((?x226 (* ?x364 y1y)))
 (let ((?x299 (+ (+ (+ (+ (* v1x xy) (* v1y y1x)) (* xx y1y)) ?x226) ?x319)))
 (> (+ ?x299 ?x188) 0.0)))))))))
(assert
 (let ((?x187 (* (- 1.0) xy)))
 (let ((?x188 (* ?x187 y1x)))
 (let ((?x157 (* (- 1.0) b1y)))
 (let ((?x339 (* ?x157 xx)))
 (let ((?x223 (* (- 1.0) b1x)))
 (let ((?x227 (* ?x223 y1y)))
 (let ((?x336 (+ (+ (+ (+ (* b1x xy) (* b1y y1x)) (* xx y1y)) ?x227) ?x339)))
 (> (+ ?x336 ?x188) 0.0)))))))))
(assert
 (let ((?x187 (* (- 1.0) xy)))
 (let ((?x188 (* ?x187 y1x)))
 (let ((?x171 (* (- 1.0) b2y)))
 (let ((?x345 (* ?x171 xx)))
 (let ((?x167 (* (- 1.0) b2x)))
 (let ((?x234 (* ?x167 y1y)))
 (let ((?x351 (+ (+ (+ (+ (* b2x xy) (* b2y y1x)) (* xx y1y)) ?x234) ?x345)))
 (> (+ ?x351 ?x188) 0.0)))))))))
(assert
 (let ((?x187 (* (- 1.0) xy)))
 (let ((?x188 (* ?x187 y1x)))
 (let ((?x340 (* (- 1.0) b3y)))
 (let ((?x306 (* ?x340 xx)))
 (let ((?x169 (* (- 1.0) b3x)))
 (let ((?x251 (* ?x169 y1y)))
 (let ((?x347 (+ (+ (+ (+ (* b3x xy) (* b3y y1x)) (* xx y1y)) ?x251) ?x306)))
 (> (+ ?x347 ?x188) 0.0)))))))))
(assert
 (let ((?x133 (* (- 1.0) v1y)))
 (let ((?x319 (* ?x133 xx)))
 (> (+ (+ (+ v1y (* (- 1.0) xy)) (* v1x xy)) ?x319) 0.0))))
(assert
 (let ((?x157 (* (- 1.0) b1y)))
 (let ((?x339 (* ?x157 xx)))
 (> (+ (+ (+ b1y (* (- 1.0) xy)) (* b1x xy)) ?x339) 0.0))))
(assert
 (let ((?x171 (* (- 1.0) b2y)))
 (let ((?x345 (* ?x171 xx)))
 (> (+ (+ (+ b2y (* (- 1.0) xy)) (* b2x xy)) ?x345) 0.0))))
(assert
 (let ((?x340 (* (- 1.0) b3y)))
 (let ((?x306 (* ?x340 xx)))
 (> (+ (+ (+ b3y (* (- 1.0) xy)) (* b3x xy)) ?x306) 0.0))))
(assert
 (let ((?x364 (* (- 1.0) v1x)))
 (let ((?x200 (* ?x364 xy)))
 (let ((?x157 (* (- 1.0) b1y)))
 (let ((?x339 (* ?x157 xx)))
 (let ((?x223 (* (- 1.0) b1x)))
 (let ((?x256 (* ?x223 v1y)))
 (let ((?x375 (+ (+ (+ (+ (* b1x xy) (* b1y v1x)) (* v1y xx)) ?x256) ?x339)))
 (> (+ ?x375 ?x200) 0.0)))))))))
(assert
 (let ((?x364 (* (- 1.0) v1x)))
 (let ((?x200 (* ?x364 xy)))
 (let ((?x171 (* (- 1.0) b2y)))
 (let ((?x345 (* ?x171 xx)))
 (let ((?x167 (* (- 1.0) b2x)))
 (let ((?x271 (* ?x167 v1y)))
 (let ((?x379 (+ (+ (+ (+ (* b2x xy) (* b2y v1x)) (* v1y xx)) ?x271) ?x345)))
 (> (+ ?x379 ?x200) 0.0)))))))))
(assert
 (let ((?x364 (* (- 1.0) v1x)))
 (let ((?x200 (* ?x364 xy)))
 (let ((?x340 (* (- 1.0) b3y)))
 (let ((?x306 (* ?x340 xx)))
 (let ((?x169 (* (- 1.0) b3x)))
 (let ((?x273 (* ?x169 v1y)))
 (let ((?x386 (+ (+ (+ (+ (* b3x xy) (* b3y v1x)) (* v1y xx)) ?x273) ?x306)))
 (> (+ ?x386 ?x200) 0.0)))))))))
(assert
 (let ((?x171 (* (- 1.0) b2y)))
 (let ((?x345 (* ?x171 xx)))
 (let ((?x157 (* (- 1.0) b1y)))
 (let ((?x288 (* ?x157 b2x)))
 (let ((?x223 (* (- 1.0) b1x)))
 (let ((?x242 (* ?x223 xy)))
 (let ((?x394 (+ (+ (+ (+ (* b1x b2y) (* b1y xx)) (* b2x xy)) ?x242) ?x288)))
 (> (+ ?x394 ?x345) 0.0)))))))))
(assert
 (let ((?x340 (* (- 1.0) b3y)))
 (let ((?x306 (* ?x340 xx)))
 (let ((?x157 (* (- 1.0) b1y)))
 (let ((?x293 (* ?x157 b3x)))
 (let ((?x223 (* (- 1.0) b1x)))
 (let ((?x242 (* ?x223 xy)))
 (let ((?x396 (+ (+ (+ (+ (* b1x b3y) (* b1y xx)) (* b3x xy)) ?x242) ?x293)))
 (> (+ ?x396 ?x306) 0.0)))))))))
(assert
 (let ((?x340 (* (- 1.0) b3y)))
 (let ((?x306 (* ?x340 xx)))
 (let ((?x171 (* (- 1.0) b2y)))
 (let ((?x308 (* ?x171 b3x)))
 (let ((?x167 (* (- 1.0) b2x)))
 (let ((?x243 (* ?x167 xy)))
 (let ((?x453 (+ (+ (+ (+ (* b2x b3y) (* b2y xx)) (* b3x xy)) ?x243) ?x308)))
 (> (+ ?x453 ?x306) 0.0)))))))))
(assert
 (let ((?x452 (+ (+ (+ v1y (* (- 1.0) y1y)) (* v1x y1y)) (* (* (- 1.0) v1y) y1x))))
 (> ?x452 0.0)))
(assert
 (let ((?x157 (* (- 1.0) b1y)))
 (let ((?x406 (* ?x157 y1x)))
 (> (+ (+ (+ b1y (* (- 1.0) y1y)) (* b1x y1y)) ?x406) 0.0))))
(assert
 (let ((?x171 (* (- 1.0) b2y)))
 (let ((?x414 (* ?x171 y1x)))
 (> (+ (+ (+ b2y (* (- 1.0) y1y)) (* b2x y1y)) ?x414) 0.0))))
(assert
 (let ((?x340 (* (- 1.0) b3y)))
 (let ((?x412 (* ?x340 y1x)))
 (> (+ (+ (+ b3y (* (- 1.0) y1y)) (* b3x y1y)) ?x412) 0.0))))
(assert
 (let ((?x364 (* (- 1.0) v1x)))
 (let ((?x226 (* ?x364 y1y)))
 (let ((?x157 (* (- 1.0) b1y)))
 (let ((?x406 (* ?x157 y1x)))
 (let ((?x223 (* (- 1.0) b1x)))
 (let ((?x256 (* ?x223 v1y)))
 (let ((?x428 (+ (+ (+ (+ (* b1x y1y) (* b1y v1x)) (* v1y y1x)) ?x256) ?x406)))
 (> (+ ?x428 ?x226) 0.0)))))))))
(assert
 (let ((?x364 (* (- 1.0) v1x)))
 (let ((?x226 (* ?x364 y1y)))
 (let ((?x171 (* (- 1.0) b2y)))
 (let ((?x414 (* ?x171 y1x)))
 (let ((?x167 (* (- 1.0) b2x)))
 (let ((?x271 (* ?x167 v1y)))
 (let ((?x416 (+ (+ (+ (+ (* b2x y1y) (* b2y v1x)) (* v1y y1x)) ?x271) ?x414)))
 (> (+ ?x416 ?x226) 0.0)))))))))
(assert
 (let ((?x364 (* (- 1.0) v1x)))
 (let ((?x226 (* ?x364 y1y)))
 (let ((?x340 (* (- 1.0) b3y)))
 (let ((?x412 (* ?x340 y1x)))
 (let ((?x169 (* (- 1.0) b3x)))
 (let ((?x273 (* ?x169 v1y)))
 (let ((?x434 (+ (+ (+ (+ (* b3x y1y) (* b3y v1x)) (* v1y y1x)) ?x273) ?x412)))
 (> (+ ?x434 ?x226) 0.0)))))))))
(assert
 (let ((?x171 (* (- 1.0) b2y)))
 (let ((?x414 (* ?x171 y1x)))
 (let ((?x157 (* (- 1.0) b1y)))
 (let ((?x288 (* ?x157 b2x)))
 (let ((?x223 (* (- 1.0) b1x)))
 (let ((?x227 (* ?x223 y1y)))
 (let ((?x424 (+ (+ (+ (+ (* b1x b2y) (* b1y y1x)) (* b2x y1y)) ?x227) ?x288)))
 (> (+ ?x424 ?x414) 0.0)))))))))
(assert
 (let ((?x340 (* (- 1.0) b3y)))
 (let ((?x412 (* ?x340 y1x)))
 (let ((?x157 (* (- 1.0) b1y)))
 (let ((?x293 (* ?x157 b3x)))
 (let ((?x223 (* (- 1.0) b1x)))
 (let ((?x227 (* ?x223 y1y)))
 (let ((?x203 (+ (+ (+ (+ (* b1x b3y) (* b1y y1x)) (* b3x y1y)) ?x227) ?x293)))
 (> (+ ?x203 ?x412) 0.0)))))))))
(assert
 (let ((?x340 (* (- 1.0) b3y)))
 (let ((?x412 (* ?x340 y1x)))
 (let ((?x171 (* (- 1.0) b2y)))
 (let ((?x308 (* ?x171 b3x)))
 (let ((?x167 (* (- 1.0) b2x)))
 (let ((?x234 (* ?x167 y1y)))
 (let ((?x446 (+ (+ (+ (+ (* b2x b3y) (* b2y y1x)) (* b3x y1y)) ?x234) ?x308)))
 (> (+ ?x446 ?x412) 0.0)))))))))
(assert
 (let ((?x223 (* (- 1.0) b1x)))
 (let ((?x256 (* ?x223 v1y)))
 (> (+ (+ (+ v1y (* (- 1.0) b1y)) (* b1y v1x)) ?x256) 0.0))))
(assert
 (let ((?x167 (* (- 1.0) b2x)))
 (let ((?x271 (* ?x167 v1y)))
 (> (+ (+ (+ v1y (* (- 1.0) b2y)) (* b2y v1x)) ?x271) 0.0))))
(assert
 (let ((?x169 (* (- 1.0) b3x)))
 (let ((?x273 (* ?x169 v1y)))
 (> (+ (+ (+ v1y (* (- 1.0) b3y)) (* b3y v1x)) ?x273) 0.0))))
(assert
 (let ((?x157 (* (- 1.0) b1y)))
 (let ((?x288 (* ?x157 b2x)))
 (> (+ (+ (+ b1y (* (- 1.0) b2y)) (* b1x b2y)) ?x288) 0.0))))
(assert
 (let ((?x157 (* (- 1.0) b1y)))
 (let ((?x293 (* ?x157 b3x)))
 (> (+ (+ (+ b1y (* (- 1.0) b3y)) (* b1x b3y)) ?x293) 0.0))))
(assert
 (let ((?x171 (* (- 1.0) b2y)))
 (let ((?x308 (* ?x171 b3x)))
 (> (+ (+ (+ b2y (* (- 1.0) b3y)) (* b2x b3y)) ?x308) 0.0))))
(assert
 (let ((?x157 (* (- 1.0) b1y)))
 (let ((?x288 (* ?x157 b2x)))
 (let ((?x223 (* (- 1.0) b1x)))
 (let ((?x256 (* ?x223 v1y)))
 (let ((?x480 (+ (+ (+ (+ (* b1x b2y) (* b1y v1x)) (* b2x v1y)) ?x256) ?x288)))
 (> (+ ?x480 (* (* (- 1.0) b2y) v1x)) 0.0)))))))
(assert
 (let ((?x340 (* (- 1.0) b3y)))
 (let ((?x485 (* ?x340 v1x)))
 (let ((?x157 (* (- 1.0) b1y)))
 (let ((?x293 (* ?x157 b3x)))
 (let ((?x223 (* (- 1.0) b1x)))
 (let ((?x256 (* ?x223 v1y)))
 (let ((?x483 (+ (+ (+ (+ (* b1x b3y) (* b1y v1x)) (* b3x v1y)) ?x256) ?x293)))
 (> (+ ?x483 ?x485) 0.0)))))))))
(assert
 (let ((?x340 (* (- 1.0) b3y)))
 (let ((?x485 (* ?x340 v1x)))
 (let ((?x171 (* (- 1.0) b2y)))
 (let ((?x308 (* ?x171 b3x)))
 (let ((?x167 (* (- 1.0) b2x)))
 (let ((?x271 (* ?x167 v1y)))
 (let ((?x272 (+ (+ (+ (+ (* b2x b3y) (* b2y v1x)) (* b3x v1y)) ?x271) ?x308)))
 (> (+ ?x272 ?x485) 0.0)))))))))
(assert
 (let ((?x171 (* (- 1.0) b2y)))
(let ((?x308 (* ?x171 b3x)))
(let ((?x157 (* (- 1.0) b1y)))
(let ((?x288 (* ?x157 b2x)))
(let ((?x282 (+ (+ (+ (* b1x b2y) (* b1y b3x)) (* b2x b3y)) (* (* (- 1.0) b1x) b3y))))
(> (+ (+ ?x282 ?x288) ?x308) 0.0)))))))
(check-sat)
